50
120
100
100
99
96
96
95
94
90
88
84
81
79
76
70
67
65
60
60
57
57
56
52
47
45
44
42
39
37
36
36
35
31
31
28
27
27
25
19
18
17
14
14
12
9
9
9
9
3
2
1
